(declare-const delta_s Int)
(declare-const delta_p Int)
(assert (exists
         ((|S1,0?1| Real) (|s'?2| Int) (KSUM1?3 Int) (|K1,0?4| Int) (K?5 Int)
            (|s'?6| Int) (|p'?7| Int) (s?8 Int) (np?9 Int) (p?10 Int))
         (and (<= (- p?10) 0) (< (+ (- np?9) p?10) 0) (<= (- K?5) 0)
                (<= (- |K1,0?4|) 0) (= (+ |K1,0?4| (- K?5)) 0)
                (<= (+ KSUM1?3 (- K?5)) 0)
                (= (+ (- |S1,0?1|) |s'?2| (- |K1,0?4|)) 0)
                (= (+ (- KSUM1?3) |K1,0?4|) 0) (= |S1,0?1| 0)
                (or (and (= K?5 0) (= (- |s'?2|) 0))
                      (and (<= (+ (- K?5) 1) 0) (<= (+ (- np?9) 1) 0)
                             (<= (+ |s'?2| (- np?9)) 0)
                             (<= (+ (- |s'?2|) 1) 0)))
                (= (+ |s'?2| (- K?5)) 0) (<= (- K?5) 0) (<= (- |s'?2|) 0)
                (< (- np?9) 0) (<= (+ (- |s'?2|) np?9) 0)
                (= (+ |s'?6| (- |s'?2|)) 0) (= (+ |p'?7| (- p?10) -1) 0)
                (= delta_p (+ |p'?7| (- p?10)))
                (= delta_s (+ |s'?6| (- s?8))))))
(check-sat)
